treewidth/data/stdlib_print_format.gr
p tw 544 609
1 2
2 113
3 14
4 5
5 6
5 190
6 7
7 8
7 213
8 9
9 10
9 40
10 11
11 12
11 195
12 13
13 15
13 151
14 25
15 16
16 17
16 70
17 18
18 19
18 213
19 20
20 21
20 198
21 22
22 23
22 201
23 24
24 26
24 213
25 36
26 208
27 28
28 29
29 213
30 31
31 32
32 213
33 34
34 35
35 213
36 47
37 38
38 39
39 213
40 41
41 42
42 213
43 44
44 45
44 53
45 46
46 48
47 58
47 492
48 49
49 50
50 51
51 52
52 62
53 54
54 55
55 56
56 57
57 59
58 69
59 60
60 61
61 62
62 63
63 64
64 65
65 66
66 67
67 68
68 219
69 80
69 484
70 71
71 72
72 73
73 74
74 75
75 76
76 77
77 78
78 79
79 81
80 91
81 82
82 83
83 84
84 85
84 86
85 86
86 87
87 88
87 108
88 89
89 90
89 108
90 92
91 102
92 93
93 94
94 95
95 96
96 97
97 98
98 99
98 105
99 100
100 101
101 103
102 114
103 104
104 95
105 106
106 107
107 108
108 109
109 110
110 111
111 112
112 115
113 224
114 125
115 116
116 117
117 118
117 131
118 119
119 120
120 121
121 122
121 131
122 123
123 124
124 126
125 136
126 127
127 128
128 129
129 130
130 111
131 132
132 133
133 134
133 219
134 135
135 137
135 219
136 147
137 138
138 139
139 140
140 141
141 142
142 143
143 144
144 145
144 216
145 146
146 148
147 158
148 149
149 150
150 141
151 152
152 153
153 154
154 155
155 156
156 157
157 159
158 169
159 160
160 161
161 162
162 163
163 164
164 165
165 166
166 167
167 168
168 170
169 180
170 171
171 172
172 173
173 174
174 175
175 176
176 177
177 178
178 179
179 181
180 191
181 182
182 183
183 184
184 185
185 186
186 187
187 188
188 189
189 219
190 192
191 202
192 193
193 194
194 219
195 196
196 197
197 219
198 199
199 200
200 219
201 203
202 213
203 204
204 219
205 206
206 207
207 219
208 209
209 210
210 211
211 212
212 214
213 225
214 215
215 219
216 217
217 218
218 219
219 220
220 221
220 249
221 222
222 223
223 226
224 335
225 236
226 227
227 228
228 229
229 230
230 231
231 232
232 233
233 234
234 235
235 237
236 247
237 238
238 239
239 240
240 241
241 242
241 523
242 243
243 244
244 245
245 246
246 248
247 258
248 234
249 250
250 251
250 523
251 252
252 253
253 254
253 268
254 255
255 256
256 257
257 259
258 269
259 260
260 261
261 262
262 263
263 264
263 294
264 265
265 266
266 267
267 294
268 270
269 280
270 271
270 279
271 272
272 273
273 274
274 275
275 276
276 277
277 278
278 294
279 281
280 291
280 358
281 282
282 283
283 284
284 285
285 286
286 287
287 288
288 289
289 290
289 294
290 292
291 302
292 293
293 294
294 295
295 296
295 307
296 297
297 298
298 299
299 300
299 305
300 301
301 303
302 313
303 304
304 307
305 306
306 307
307 308
308 309
309 310
310 311
311 312
312 314
313 324
314 315
315 316
316 317
317 318
318 319
319 320
319 331
320 321
321 322
322 323
323 325
324 336
325 326
326 327
327 328
328 329
329 330
330 334
331 332
332 333
333 334
334 337
335 446
336 347
337 338
338 339
339 340
340 341
341 342
341 311
342 343
343 344
344 345
344 346
345 346
346 348
347 523
348 349
348 366
349 350
349 366
350 351
351 352
352 353
353 354
354 355
355 356
355 363
356 357
357 359
358 369
359 360
360 361
361 362
362 353
363 364
364 365
365 366
366 367
367 368
367 377
368 370
369 380
370 371
371 372
372 373
373 374
374 375
375 376
376 399
377 378
378 379
378 399
379 381
379 389
380 391
381 382
382 383
383 384
384 385
385 386
386 387
387 388
388 399
389 390
390 392
390 399
391 402
391 506
392 393
393 394
394 395
395 396
396 397
397 398
398 399
399 400
400 401
400 421
401 403
402 413
403 404
404 405
405 406
406 407
407 408
408 409
408 431
409 410
409 412
410 411
411 415
412 414
413 424
413 506
414 415
415 416
416 417
417 418
418 419
419 420
420 404
421 422
422 423
423 425
423 428
424 435
425 426
426 427
427 434
428 429
429 430
430 434
431 432
432 433
433 434
434 436
435 447
435 499
436 437
437 438
438 439
439 440
440 441
441 442
442 443
442 467
443 444
444 445
445 448
445 453
446 501
447 458
448 449
449 450
450 451
451 452
452 457
453 454
454 455
455 456
456 457
457 459
458 469
459 460
460 461
461 462
462 463
463 464
464 465
465 466
466 439
467 468
468 470
469 480
470 471
470 523
471 472
472 473
473 474
474 475
475 476
476 477
476 523
477 478
478 479
479 481
480 491
481 482
482 483
483 473
484 485
485 486
486 487
487 488
488 489
489 490
490 523
491 496
492 493
493 494
494 495
496 497
496 213
497 498
498 213
499 500
500 502
501 512
502 503
503 504
504 505
505 213
506 507
507 508
508 509
508 514
509 510
510 511
510 213
511 513
512 523
513 213
514 515
515 516
516 517
517 518
517 525
518 519
519 520
519 525
520 521
521 522
522 524
523 534
524 527
525 526
526 527
527 528
528 529
529 530
529 33
530 531
531 532
531 30
532 533
533 535
533 27
534 3
535 536
536 537
536 37
537 538
538 539
538 43
539 540
540 541
540 190
541 542
542 543
542 205
543 544
544 4
544 213
