treewidth/data/stdlib_print_format.td
c width = 4, time = 0.260200
s td 535 5 544
b 1 7 213 219 531 540
b 2 7 213 219 540 544
b 3 7 190 219 540 544
b 4 5 7 190 544
b 5 219 540 542 544
b 6 7 16 213 219
b 7 7 11 16 213 219
b 8 7 9 11 213
b 9 11 13 16 219
b 10 16 20 24 213 219
b 11 16 18 20 213
b 12 20 22 24 219
b 13 213 219 506 531
b 14 213 219 280 413 506
b 15 280 391 413 506
b 16 213 219 280 523
b 17 213 506 508 529 531
b 18 213 219 531 536 540
b 19 213 531 533 536
b 20 219 536 538 540
b 21 16 84 86
b 22 16 86 87
b 23 16 87 108
b 24 16 108 111
b 25 16 111 131
b 26 16 131 133
b 27 16 133 219
b 28 44 62 219
b 29 213 413 435
b 30 213 508 510
b 31 69 213 523
b 32 219 220 523
b 33 44 219 538
b 34 508 517 527
b 35 508 527 529
b 36 87 89 108
b 37 111 117 121 131
b 38 133 135 219
b 39 213 435 496
b 40 220 234 241
b 41 220 241 523
b 42 517 519 525 527
b 43 89 95 98
b 44 89 98 108
b 45 135 141 144
b 46 135 144 219
b 47 220 250 523
b 48 250 253 294
b 49 250 294 295
b 50 250 295 307
b 51 250 307 311
b 52 250 311 341
b 53 250 341 344
b 54 250 344 346
b 55 250 346 348
b 56 250 348 366
b 57 250 366 367
b 58 250 367 399
b 59 250 399 400
b 60 250 400 434
b 61 250 434 439
b 62 250 439 442
b 63 250 442 470
b 64 250 470 523
b 65 253 263 294
b 66 295 299 307
b 67 311 319 334
b 68 311 334 341
b 69 348 349 366
b 70 367 378 399
b 71 400 404 408
b 72 400 408 434
b 73 439 442 445
b 74 470 473 476
b 75 470 476 523
b 76 253 270 294
b 77 349 353 355
b 78 349 355 366
b 79 378 379 399
b 80 404 408 409
b 81 400 423 434
b 82 439 445 457
b 83 270 289 294
b 84 379 390 399
b 85 404 409 415
b 86 7 5 6
b 87 9 7 8
b 88 11 9 10
b 89 13 11 12
b 90 16 13 15
b 91 18 16 17
b 92 20 18 19
b 93 22 20 21
b 94 24 22 23
b 95 62 44 45
b 96 62 45 46
b 97 62 46 48
b 98 62 48 49
b 99 62 49 50
b 100 62 50 51
b 101 62 51 52
b 102 62 44 53
b 103 62 53 54
b 104 62 54 55
b 105 62 55 56
b 106 62 56 57
b 107 62 57 59
b 108 62 59 60
b 109 62 60 61
b 110 84 16 70
b 111 84 70 71
b 112 84 71 72
b 113 84 72 73
b 114 84 73 74
b 115 84 74 75
b 116 84 75 76
b 117 84 76 77
b 118 84 77 78
b 119 84 78 79
b 120 84 79 81
b 121 84 81 82
b 122 84 82 83
b 123 86 84 85
b 124 89 87 88
b 125 95 89 90
b 126 95 90 92
b 127 95 92 93
b 128 95 93 94
b 129 95 98 99
b 130 95 99 100
b 131 95 100 101
b 132 95 101 103
b 133 95 103 104
b 134 98 95 96
b 135 98 96 97
b 136 108 98 105
b 137 108 105 106
b 138 108 106 107
b 139 111 108 109
b 140 111 109 110
b 141 111 121 122
b 142 111 122 123
b 143 111 123 124
b 144 111 124 126
b 145 111 126 127
b 146 111 127 128
b 147 111 128 129
b 148 111 129 130
b 149 117 111 112
b 150 117 112 115
b 151 117 115 116
b 152 121 117 118
b 153 121 118 119
b 154 121 119 120
b 155 133 131 132
b 156 135 133 134
b 157 141 135 137
b 158 141 137 138
b 159 141 138 139
b 160 141 139 140
b 161 141 144 145
b 162 141 145 146
b 163 141 146 148
b 164 141 148 149
b 165 141 149 150
b 166 144 141 142
b 167 144 142 143
b 168 213 533 27
b 169 213 27 28
b 170 213 28 29
b 171 213 531 30
b 172 213 30 31
b 173 213 31 32
b 174 213 529 33
b 175 213 33 34
b 176 213 34 35
b 177 213 536 37
b 178 213 37 38
b 179 213 38 39
b 180 213 9 40
b 181 213 40 41
b 182 213 41 42
b 183 213 69 80
b 184 213 80 91
b 185 213 91 102
b 186 213 102 114
b 187 213 114 125
b 188 213 125 136
b 189 213 136 147
b 190 213 147 158
b 191 213 158 169
b 192 213 169 180
b 193 213 180 191
b 194 213 191 202
b 195 213 496 497
b 196 213 497 498
b 197 213 435 499
b 198 213 499 500
b 199 213 500 502
b 200 213 502 503
b 201 213 503 504
b 202 213 504 505
b 203 213 510 511
b 204 213 511 513
b 205 219 62 63
b 206 219 63 64
b 207 219 64 65
b 208 219 65 66
b 209 219 66 67
b 210 219 67 68
b 211 219 13 151
b 212 219 151 152
b 213 219 152 153
b 214 219 153 154
b 215 219 154 155
b 216 219 155 156
b 217 219 156 157
b 218 219 157 159
b 219 219 159 160
b 220 219 160 161
b 221 219 161 162
b 222 219 162 163
b 223 219 163 164
b 224 219 164 165
b 225 219 165 166
b 226 219 166 167
b 227 219 167 168
b 228 219 168 170
b 229 219 170 171
b 230 219 171 172
b 231 219 172 173
b 232 219 173 174
b 233 219 174 175
b 234 219 175 176
b 235 219 176 177
b 236 219 177 178
b 237 219 178 179
b 238 219 179 181
b 239 219 181 182
b 240 219 182 183
b 241 219 183 184
b 242 219 184 185
b 243 219 185 186
b 244 219 186 187
b 245 219 187 188
b 246 219 188 189
b 247 219 190 192
b 248 219 192 193
b 249 219 193 194
b 250 219 11 195
b 251 219 195 196
b 252 219 196 197
b 253 219 20 198
b 254 219 198 199
b 255 219 199 200
b 256 219 22 201
b 257 219 201 203
b 258 219 203 204
b 259 219 542 205
b 260 219 205 206
b 261 219 206 207
b 262 219 24 26
b 263 219 26 208
b 264 219 208 209
b 265 219 209 210
b 266 219 210 211
b 267 219 211 212
b 268 219 212 214
b 269 219 214 215
b 270 219 144 216
b 271 219 216 217
b 272 219 217 218
b 273 234 220 221
b 274 234 221 222
b 275 234 222 223
b 276 234 223 226
b 277 234 226 227
b 278 234 227 228
b 279 234 228 229
b 280 234 229 230
b 281 234 230 231
b 282 234 231 232
b 283 234 232 233
b 284 234 241 242
b 285 234 242 243
b 286 234 243 244
b 287 234 244 245
b 288 234 245 246
b 289 234 246 248
b 290 241 234 235
b 291 241 235 237
b 292 241 237 238
b 293 241 238 239
b 294 241 239 240
b 295 250 220 249
b 296 253 250 251
b 297 253 251 252
b 298 263 253 254
b 299 263 254 255
b 300 263 255 256
b 301 263 256 257
b 302 263 257 259
b 303 263 259 260
b 304 263 260 261
b 305 263 261 262
b 306 270 253 268
b 307 280 213 225
b 308 280 225 236
b 309 280 236 247
b 310 280 247 258
b 311 280 258 269
b 312 289 270 279
b 313 289 279 281
b 314 289 281 282
b 315 289 282 283
b 316 289 283 284
b 317 289 284 285
b 318 289 285 286
b 319 289 286 287
b 320 289 287 288
b 321 294 263 264
b 322 294 264 265
b 323 294 265 266
b 324 294 266 267
b 325 294 270 271
b 326 294 271 272
b 327 294 272 273
b 328 294 273 274
b 329 294 274 275
b 330 294 275 276
b 331 294 276 277
b 332 294 277 278
b 333 294 289 290
b 334 294 290 292
b 335 294 292 293
b 336 299 295 296
b 337 299 296 297
b 338 299 297 298
b 339 307 299 300
b 340 307 300 301
b 341 307 301 303
b 342 307 303 304
b 343 307 299 305
b 344 307 305 306
b 345 311 307 308
b 346 311 308 309
b 347 311 309 310
b 348 319 311 312
b 349 319 312 314
b 350 319 314 315
b 351 319 315 316
b 352 319 316 317
b 353 319 317 318
b 354 334 319 320
b 355 334 320 321
b 356 334 321 322
b 357 334 322 323
b 358 334 323 325
b 359 334 325 326
b 360 334 326 327
b 361 334 327 328
b 362 334 328 329
b 363 334 329 330
b 364 334 319 331
b 365 334 331 332
b 366 334 332 333
b 367 341 334 337
b 368 341 337 338
b 369 341 338 339
b 370 341 339 340
b 371 344 341 342
b 372 344 342 343
b 373 346 344 345
b 374 353 349 350
b 375 353 350 351
b 376 353 351 352
b 377 353 355 356
b 378 353 356 357
b 379 353 357 359
b 380 353 359 360
b 381 353 360 361
b 382 353 361 362
b 383 355 353 354
b 384 366 355 363
b 385 366 363 364
b 386 366 364 365
b 387 378 367 377
b 388 390 379 389
b 389 391 280 358
b 390 391 358 369
b 391 391 369 380
b 392 399 367 368
b 393 399 368 370
b 394 399 370 371
b 395 399 371 372
b 396 399 372 373
b 397 399 373 374
b 398 399 374 375
b 399 399 375 376
b 400 399 379 381
b 401 399 381 382
b 402 399 382 383
b 403 399 383 384
b 404 399 384 385
b 405 399 385 386
b 406 399 386 387
b 407 399 387 388
b 408 399 390 392
b 409 399 392 393
b 410 399 393 394
b 411 399 394 395
b 412 399 395 396
b 413 399 396 397
b 414 399 397 398
b 415 404 400 401
b 416 404 401 403
b 417 404 415 416
b 418 404 416 417
b 419 404 417 418
b 420 404 418 419
b 421 404 419 420
b 422 408 404 405
b 423 408 405 406
b 424 408 406 407
b 425 413 391 402
b 426 415 409 410
b 427 415 410 411
b 428 415 409 412
b 429 415 412 414
b 430 423 400 421
b 431 423 421 422
b 432 434 423 425
b 433 434 425 426
b 434 434 426 427
b 435 434 423 428
b 436 434 428 429
b 437 434 429 430
b 438 434 408 431
b 439 434 431 432
b 440 434 432 433
b 441 435 413 424
b 442 439 434 436
b 443 439 436 437
b 444 439 437 438
b 445 439 457 459
b 446 439 459 460
b 447 439 460 461
b 448 439 461 462
b 449 439 462 463
b 450 439 463 464
b 451 439 464 465
b 452 439 465 466
b 453 442 439 440
b 454 442 440 441
b 455 445 442 443
b 456 445 443 444
b 457 457 445 448
b 458 457 448 449
b 459 457 449 450
b 460 457 450 451
b 461 457 451 452
b 462 457 445 453
b 463 457 453 454
b 464 457 454 455
b 465 457 455 456
b 466 470 442 467
b 467 470 467 468
b 468 473 470 471
b 469 473 471 472
b 470 473 476 477
b 471 473 477 478
b 472 473 478 479
b 473 473 479 481
b 474 473 481 482
b 475 473 482 483
b 476 476 473 474
b 477 476 474 475
b 478 496 435 447
b 479 496 447 458
b 480 496 458 469
b 481 496 469 480
b 482 496 480 491
b 483 508 506 507
b 484 510 508 509
b 485 517 508 514
b 486 517 514 515
b 487 517 515 516
b 488 519 517 518
b 489 523 280 291
b 490 523 291 302
b 491 523 302 313
b 492 523 313 324
b 493 523 324 336
b 494 523 336 347
b 495 523 69 484
b 496 523 484 485
b 497 523 485 486
b 498 523 486 487
b 499 523 487 488
b 500 523 488 489
b 501 523 489 490
b 502 523 69 58
b 503 523 58 47
b 504 523 47 36
b 505 523 36 25
b 506 523 25 14
b 507 523 14 3
b 508 523 3 534
b 509 527 519 520
b 510 527 520 521
b 511 527 521 522
b 512 527 522 524
b 513 527 525 526
b 514 529 527 528
b 515 531 529 530
b 516 533 531 532
b 517 536 533 535
b 518 538 44 43
b 519 538 536 537
b 520 540 538 539
b 521 542 540 541
b 522 544 5 4
b 523 544 542 543
b 524 47 492
b 525 492 493
b 526 493 494
b 527 494 495
b 528 523 512
b 529 512 501
b 530 501 446
b 531 446 335
b 532 335 224
b 533 224 113
b 534 113 2
b 535 2 1
3 4
2 3
2 5
1 2
7 8
7 9
6 7
10 11
10 12
6 10
1 6
14 15
14 16
13 14
13 17
1 13
18 19
18 20
1 18
22 21
23 22
24 23
25 24
26 25
27 26
6 27
33 28
14 29
17 30
16 31
16 32
20 33
35 34
17 35
23 36
25 37
27 38
29 39
41 40
32 41
34 42
44 43
36 44
46 45
38 46
41 47
49 48
50 49
51 50
52 51
53 52
54 53
55 54
56 55
57 56
58 57
59 58
60 59
61 60
62 61
63 62
64 63
47 64
48 65
50 66
68 67
52 68
56 69
58 70
72 71
60 72
62 73
75 74
64 75
65 76
78 77
69 78
70 79
71 80
72 81
73 82
76 83
79 84
80 85
4 86
8 87
8 88
9 89
9 90
11 91
11 92
12 93
12 94
28 95
95 96
96 97
97 98
98 99
99 100
100 101
28 102
102 103
103 104
104 105
105 106
106 107
107 108
108 109
21 110
110 111
111 112
112 113
113 114
114 115
115 116
116 117
117 118
118 119
119 120
120 121
121 122
21 123
36 124
43 125
125 126
126 127
127 128
43 129
129 130
130 131
131 132
132 133
43 134
134 135
44 136
136 137
137 138
24 139
139 140
37 141
141 142
142 143
143 144
144 145
145 146
146 147
147 148
37 149
149 150
150 151
37 152
152 153
153 154
26 155
38 156
45 157
157 158
158 159
159 160
45 161
161 162
162 163
163 164
164 165
45 166
166 167
19 168
168 169
169 170
1 171
171 172
172 173
17 174
174 175
175 176
18 177
177 178
178 179
8 180
180 181
181 182
31 183
183 184
184 185
185 186
186 187
187 188
188 189
189 190
190 191
191 192
192 193
193 194
39 195
195 196
29 197
197 198
198 199
199 200
200 201
201 202
30 203
203 204
28 205
205 206
206 207
207 208
208 209
209 210
9 211
211 212
212 213
213 214
214 215
215 216
216 217
217 218
218 219
219 220
220 221
221 222
222 223
223 224
224 225
225 226
226 227
227 228
228 229
229 230
230 231
231 232
232 233
233 234
234 235
235 236
236 237
237 238
238 239
239 240
240 241
241 242
242 243
243 244
244 245
245 246
3 247
247 248
248 249
7 250
250 251
251 252
10 253
253 254
254 255
12 256
256 257
257 258
5 259
259 260
260 261
10 262
262 263
263 264
264 265
265 266
266 267
267 268
268 269
46 270
270 271
271 272
40 273
273 274
274 275
275 276
276 277
277 278
278 279
279 280
280 281
281 282
282 283
40 284
284 285
285 286
286 287
287 288
288 289
40 290
290 291
291 292
292 293
293 294
47 295
48 296
296 297
65 298
298 299
299 300
300 301
301 302
302 303
303 304
304 305
76 306
14 307
307 308
308 309
309 310
310 311
83 312
312 313
313 314
314 315
315 316
316 317
317 318
318 319
319 320
65 321
321 322
322 323
323 324
76 325
325 326
326 327
327 328
328 329
329 330
330 331
331 332
83 333
333 334
334 335
66 336
336 337
337 338
66 339
339 340
340 341
341 342
66 343
343 344
51 345
345 346
346 347
67 348
348 349
349 350
350 351
351 352
352 353
67 354
354 355
355 356
356 357
357 358
358 359
359 360
360 361
361 362
362 363
67 364
364 365
365 366
68 367
367 368
368 369
369 370
53 371
371 372
54 373
77 374
374 375
375 376
77 377
377 378
378 379
379 380
380 381
381 382
77 383
78 384
384 385
385 386
70 387
84 388
15 389
389 390
390 391
58 392
392 393
393 394
394 395
395 396
396 397
397 398
398 399
79 400
400 401
401 402
402 403
403 404
404 405
405 406
406 407
84 408
408 409
409 410
410 411
411 412
412 413
413 414
71 415
415 416
85 417
417 418
418 419
419 420
420 421
71 422
422 423
423 424
15 425
85 426
426 427
85 428
428 429
81 430
430 431
81 432
432 433
433 434
81 435
435 436
436 437
72 438
438 439
439 440
29 441
61 442
442 443
443 444
82 445
445 446
446 447
447 448
448 449
449 450
450 451
451 452
62 453
453 454
73 455
455 456
82 457
457 458
458 459
459 460
460 461
82 462
462 463
463 464
464 465
63 466
466 467
74 468
468 469
74 470
470 471
471 472
472 473
473 474
474 475
74 476
476 477
39 478
478 479
479 480
480 481
481 482
17 483
30 484
34 485
485 486
486 487
42 488
16 489
489 490
490 491
491 492
492 493
493 494
31 495
495 496
496 497
497 498
498 499
499 500
500 501
31 502
502 503
503 504
504 505
505 506
506 507
507 508
42 509
509 510
510 511
511 512
42 513
35 514
17 515
19 516
19 517
33 518
20 519
20 520
5 521
4 522
5 523
503 524
524 525
525 526
526 527
16 528
528 529
529 530
530 531
531 532
532 533
533 534
534 535
